419 420 421 425 
482 483 484 488 
542 543 544 548 
602 603 604 608 
662 663 664 668 
709 710 711 715 
739 740 741 745 
769 770 771 775 
799 800 801 805 
829 830 831 835 
859 860 861 865 
889 890 891 895 
919 920 921 925 
949 950 951 955 
979 980 981 985 
1009 1010 1011 1015 
1046 1047 1048 1052 
1108 1109 1110 1114 
1170 1171 1172 1176 
1230 1231 1232 1236 
1290 1291 1292 1296 
1349 1350 1351 1355 
1412 1413 1414 1418 
